(set-logic ALL)
(declare-const BAV1 Bool)
(declare-const BAV2 Bool)
(declare-fun A () (Set Int))
(declare-fun B () (Set Int))
(declare-fun C () (Set Int))
(declare-fun f () Int)
(declare-fun g () Int)
(declare-fun h () Int)
(declare-fun i () Int)
(declare-fun j () Int)
(assert (subset A (insert g h i (singleton f))))
(assert (= C (setminus A B)))
(assert (subset B A))
(assert (= C (intersection A B)))
(assert (member j C))
(assert (= BAV1 (= C (setminus A B))))
(assert (= BAV2 (= C (intersection A B))))
(check-sat)
(get-model)